c ---- [ banner ] ------------------------------------------------------------
c
c Kissat SAT Solver
c 
c Copyright (c) 2021-2024 Armin Biere University of Freiburg
c Copyright (c) 2019-2021 Armin Biere Johannes Kepler University Linz
c 
c Version 4.0.1 43f02cf3e992cb44653b35e5cb26f93281552ae0
c gcc (Ubuntu 13.2.0-23ubuntu4) 13.2.0 -W -Wall -O3 -DNDEBUG
c Thu Sep 12 12:27:46 CEST 2024 Linux abryzen9 6.8.0-41-generic x86_64
c
c ---- [ parsing ] -----------------------------------------------------------
c
c opened and reading DIMACS file:
c
c   /data/artifact/AMulet2.0_artifact/exp4/cnf_compress2rs_64/64_64_U_SP_WT_LF_GenMul_compress2rs.cnf
c
c parsed 'p cnf 36440 141674' header
c closing input after reading 2758481 bytes (3 MB)
c finished parsing after 0.02 seconds
c
c ---- [ options ] -----------------------------------------------------------
c
c --stable=0                       (different from default '1')
c
c ---- [ solving ] -----------------------------------------------------------
c
c  seconds switched rate     size/glue tier1  binary           remaining
c         MB reductions conflicts size  tier2     irredundant
c          level restarts redundant glue  trail           variables
c
c *  0.02 11 0 0 0  0 0   0   0 0.0 0 0 0 0 0% 29238 112434 36437 100%
c (  0.04 13 0 0 0  0 0   0   0 0.0 0 0 0 0 0% 29238 112434 36437 100%
c .  0.05 13 0 0 0  0 0   0   0 0.0 0 0 0 0 0% 29234 112434 36437 100%
c c  0.12 21 0 0 0  0 0   0   0 0.0 0 0 0 0 0% 36796 97547 32654 90%
c d  0.12 22 0 0 0  0 0   0   0 0.0 0 0 0 0 0% 29230 97547 32654 90%
c =  0.16 22 0 0 0  0 0   0   0 0.0 0 0 0 0 0% 29622 97547 32379 89%
c d  0.17 22 0 0 0  0 0   0   0 0.0 0 0 0 0 0% 29072 97547 32379 89%
c f  0.24 20 0 0 0  0 0   0   0 0.0 0 0 0 0 0% 32044 92812 34142 94%
c e  0.36 28 0 0 0  0 0   0   0 0.0 0 0 0 0 0% 10324 106939 23109 63%
c )  0.36 28 0 0 0  0 0   0   0 0.0 0 0 0 0 0% 10324 106939 23109 63%
c {  0.38 28 0 0 0  0 0   0   0 0.0 0 0 2 6 0% 10324 106939 23109 63%
c -  0.80 30 143 0 1 338 39 1000 736 5.3 35 7 3 15 22% 10392 106932 23109 63%
c -  1.14 30 268 0 2 475 39 2000 1470 5.7 39 7 3 14 23% 10417 106932 23109 63%
c c  1.38 24 254 0 2 512 36 2504 1874 5.6 40 7 3 14 25% 10445 106905 23103 63%
c d  1.39 24 254 0 2 512 36 2504 1871 5.6 40 7 3 14 25% 10433 106905 23103 63%
c u  1.41 24 254 0 2 512 36 2504 1453 5.6 40 7 3 14 25% 10440 106905 23103 63%
c v  1.45 24 254 0 2 512 36 2504 1182 5.6 40 7 3 14 25% 10440 106905 23103 63%
c w  1.48 24 254 0 2 512 36 2504 1182 5.6 40 7 3 14 25% 10440 106905 23103 63%
c x  1.50 26 254 0 2 512 36 2504 1182 5.6 40 7 3 14 25% 10537 106711 23103 63%
c =  1.60 26 254 0 2 512 36 2504 1182 5.6 40 7 3 14 25% 10925 106711 22909 63%
c
c  seconds   switched   rate       size/glue tier1     binary           remaining
c         MB  reductions conflicts       size  tier2       irredundant
c           level restarts    redundant    glue    trail           variables
c
c d  1.61 26 254 0 2 512 36 2504 1182 5.6 40 7 3 14 25% 10537 106711 22909 63%
c t  1.63 26 254 0 2 512 36 2504 1182 5.6 40 7 3 14 25% 10532 106711 22909 63%
c f  1.67 26 254 0 2 512 36 2504 1182 5.6 40 7 3 14 25% 11265 105334 23552 65%
c u  1.71 26 254 0 2 512 36 2504 1128 5.6 40 7 3 14 25% 11267 105334 23552 65%
c v  1.73 26 254 0 2 512 36 2504 1076 5.6 40 7 3 14 25% 11267 105334 23552 65%
c w  1.78 26 254 0 2 512 36 2504 1074 5.6 40 7 3 14 25% 11267 105334 23552 65%
c x  1.80 26 254 0 2 512 36 2504 1074 5.6 40 7 3 14 25% 11268 105090 23552 65%
c =  1.91 26 254 0 2 512 36 2504 1074 5.6 40 7 3 14 25% 11898 105090 23237 64%
c d  1.92 26 254 0 2 512 36 2504 1071 5.6 40 7 3 14 25% 11199 105090 23237 64%
c t  1.93 26 254 0 2 512 36 2504 1071 5.6 40 7 3 14 25% 11193 105090 23237 64%
c f  1.97 26 254 0 2 512 36 2504 1071 5.6 40 7 3 14 25% 12073 103770 23677 65%
c -  2.14 26 370 0 3 571 35 3416 1636 5.1 34 7 3 12 25% 12102 103770 23677 65%
c -  2.30 26 474 0 4 636 32 5148 2721 4.7 28 6 2 12 22% 12237 103750 23677 65%
c -  2.94 28 416 0 5 924 32 7148 3896 4.4 27 6 2 11 23% 12308 103747 23677 65%
c c  3.14 28 397 0 5 975 32 7712 4373 4.4 27 6 2 11 23% 12329 103713 23668 65%
c d  3.15 28 397 0 5 975 32 7712 4369 4.4 27 6 2 11 23% 12281 103713 23650 65%
c u  3.19 28 397 0 5 975 32 7712 3418 4.4 27 6 2 11 23% 12292 103713 23650 65%
c v  3.23 28 397 0 5 975 32 7712 2985 4.4 27 6 2 11 23% 12293 103713 23650 65%
c w  3.26 28 397 0 5 975 32 7712 2985 4.4 27 6 2 11 23% 12293 103713 23650 65%
c x  3.29 28 397 0 5 975 32 7712 2985 4.4 27 6 2 11 23% 12305 103646 23650 65%
c
c  seconds   switched   rate       size/glue tier1     binary           remaining
c         MB  reductions conflicts       size  tier2       irredundant
c           level restarts    redundant    glue    trail           variables
c
c =  3.40 28 397 0 5 975 32 7712 2985 4.4 27 6 2 11 23% 13045 103646 23280 64%
c d  3.41 28 397 0 5 975 32 7712 2976 4.4 27 6 2 11 23% 12244 103646 23280 64%
c t  3.43 28 397 0 5 975 32 7712 2976 4.4 27 6 2 11 23% 12241 103646 23280 64%
c f  3.47 28 397 0 5 975 32 7712 2976 4.4 27 6 2 11 23% 13771 101351 24045 66%
c u  3.50 28 397 0 5 975 32 7712 2848 4.4 27 6 2 11 23% 13771 101351 24045 66%
c v  3.53 28 397 0 5 975 32 7712 2768 4.4 27 6 2 11 23% 13771 101351 24045 66%
c w  3.57 28 397 0 5 975 32 7712 2766 4.4 27 6 2 11 23% 13771 101351 24045 66%
c x  3.60 28 397 0 5 975 32 7712 2766 4.4 27 6 2 11 23% 13787 96649 24045 66%
c =  3.72 28 397 0 5 975 32 7712 2766 4.4 27 6 2 11 23% 14241 96646 23818 65%
c d  3.73 28 397 0 5 975 32 7712 2760 4.4 27 6 2 11 23% 13730 96646 23818 65%
c t  3.75 28 397 0 5 975 32 7712 2760 4.4 27 6 2 11 23% 13726 96646 23818 65%
c f  3.79 28 397 0 5 975 32 7712 2760 4.4 27 6 2 11 23% 13736 96631 23823 65%
c -  4.19 28 404 0 6 1093 31 9388 3610 4.0 28 7 2 11 23% 13807 96624 23823 65%
c o  4.23 28 406 0 6 1095 30 10005 4099 3.9 27 7 2 11 22% 13841 96624 23823 65%
c -  4.83 28 394 0 7 1238 30 11839 4979 4.1 28 7 2 10 24% 13901 96624 23823 65%
c s  5.07 28 393 0 7 1283 30 12510 5533 4.1 28 7 2 10 24% 13927 94733 23823 65%
c e  5.20 28 393 0 7 1283 30 12510 5533 4.1 28 7 2 10 24% 11728 96272 22117 61%
c s  5.21 28 393 0 7 1283 30 12510 5533 4.1 28 7 2 10 24% 11737 94917 22117 61%
c ^  5.23 28 393 0 7 1283 30 12510 5533 4.1 28 7 2 10 24% 11737 94917 22117 61%
c -  5.51 28 395 0 8 1354 29 14485 5907 4.0 27 7 2 9 23% 11791 94913 22117 61%
c
c  seconds   switched    rate        size/glue tier1    binary          remaining
c         MB  reductions   conflicts       size  tier2      irredundant
c           level  restarts     redundant    glue   trail          variables
c
c d  5.82 28 387 0 8 1458 29 15791 7052 4.1 27 7 2 9 23% 11613 94908 21973 60%
c u  5.87 28 387 0 8 1458 29 15791 5557 4.1 27 7 2 9 23% 11634 94908 21973 60%
c v  5.91 28 387 0 8 1458 29 15791 4904 4.1 27 7 2 9 23% 11635 94908 21973 60%
c w  5.98 28 387 0 8 1458 29 15791 4904 4.1 27 7 2 9 23% 11635 94908 21973 60%
c x  6.03 28 387 0 8 1458 29 15791 4904 4.1 27 7 2 9 23% 11689 93429 21973 60%
c =  6.21 28 387 0 8 1458 29 15791 4904 4.1 27 7 2 9 23% 13093 93429 21271 58%
c d  6.22 28 387 0 8 1458 29 15791 4835 4.1 27 7 2 9 23% 11320 93429 21268 58%
c t  6.24 28 387 0 8 1458 29 15791 4835 4.1 27 7 2 9 23% 11301 93429 21268 58%
c f  6.31 28 387 0 8 1458 29 15791 4835 4.1 27 7 2 9 23% 11314 93397 21277 58%
c u  6.43 28 387 0 8 1458 29 15791 4494 4.1 27 7 2 9 23% 11319 93397 21277 58%
c v  6.46 28 387 0 8 1458 29 15791 4362 4.1 27 7 2 9 23% 11319 93397 21277 58%
c w  6.55 28 387 0 8 1458 29 15791 4349 4.1 27 7 2 9 23% 11319 93397 21277 58%
c x  6.59 28 387 0 8 1458 29 15791 4349 4.1 27 7 2 9 23% 11328 91459 21277 58%
c =  6.78 28 387 0 8 1458 29 15791 4349 4.1 27 7 2 9 23% 12960 91453 20461 56%
c d  6.79 28 387 0 8 1458 29 15791 4290 4.1 27 7 2 9 23% 11017 91453 20461 56%
c t  6.80 28 387 0 8 1458 29 15791 4290 4.1 27 7 2 9 23% 11000 91453 20461 56%
c f  6.83 28 387 0 8 1458 29 15791 4290 4.1 27 7 2 9 23% 11010 91404 20478 56%
c -  7.22 28 369 0 9 1572 29 17315 4938 4.0 26 7 2 8 24% 11056 91404 20478 56%
c -  7.72 28 371 0 10 1703 28 20315 6747 4.0 25 6 2 8 24% 11156 91402 20478 56%
c o  7.74 28 371 0 10 1704 28 20487 6909 3.9 25 6 2 8 24% 11156 91402 20478 56%
c
c  seconds   switched     rate        size/glue tier1    binary          remaining
c         MB   reductions   conflicts       size  tier2      irredundant
c           level   restarts     redundant    glue   trail          variables
c
c -  8.47 28 358 0 11 1928 29 23477 8567 3.9 25 6 2 7 24% 11226 91395 20478 56%
c s  9.03 28 353 0 11 2130 29 25014 10016 3.9 25 6 2 7 24% 11245 90589 20478 56%
c e  9.18 28 353 0 11 2130 29 25014 10016 3.9 25 6 2 7 24% 9688 94343 17826 49%
c 2  9.18 28 353 0 11 2130 29 25014 10016 3.9 25 6 2 7 24% 9687 94343 17826 49%
c s  9.21 28 353 0 11 2130 29 25014 10016 3.9 25 6 2 7 24% 9731 90680 17826 49%
c e  9.26 28 353 0 11 2130 29 25014 10016 3.9 25 6 2 7 24% 9694 90735 17803 49%
c ^  9.26 28 353 0 11 2130 29 25014 10016 3.9 25 6 2 7 24% 9694 90735 17803 49%
c -  9.68 28 336 0 12 2243 28 26793 8593 3.8 24 6 2 7 25% 9705 90732 17803 49%
c d  9.70 28 336 0 12 2243 28 26917 8697 3.8 24 6 2 7 25% 9658 90730 17772 49%
c u  9.75 28 336 0 12 2243 28 26917 7110 3.8 24 6 2 7 25% 9677 90730 17772 49%
c v  9.81 28 336 0 12 2243 28 26917 6085 3.8 24 6 2 7 25% 9678 90730 17772 49%
c w  9.82 28 336 0 12 2243 28 26917 6081 3.8 24 6 2 7 25% 9678 90730 17772 49%
c x  9.92 28 336 0 12 2243 28 26917 6077 3.8 24 6 2 7 25% 9724 88047 17772 49%
c = 10.18 28 336 0 12 2243 28 26917 6077 3.8 24 6 2 7 25% 11292 88047 16988 47%
c d 10.19 28 336 0 12 2243 28 26917 5989 3.8 24 6 2 7 25% 9614 88047 16986 47%
c t 10.21 28 336 0 12 2243 28 26917 5989 3.8 24 6 2 7 25% 9591 88047 16986 47%
c f 10.30 28 336 0 12 2243 28 26917 5989 3.8 24 6 2 7 25% 9582 87982 17001 47%
c u 10.36 28 336 0 12 2243 28 26917 5618 3.8 24 6 2 7 25% 9583 87982 17001 47%
c v 10.39 28 336 0 12 2243 28 26917 5477 3.8 24 6 2 7 25% 9584 87982 17001 47%
c w 10.40 28 336 0 12 2243 28 26917 5474 3.8 24 6 2 7 25% 9584 87982 17001 47%
c
c  seconds   switched     rate        size/glue tier1    binary         remaining
c         MB   reductions   conflicts       size  tier2     irredundant
c           level   restarts     redundant    glue   trail         variables
c
c x 10.53 28 336 0 12 2243 28 26917 5473 3.8 24 6 2 7 25% 9588 83348 17001 47%
c = 10.79 28 336 0 12 2243 28 26917 5473 3.8 24 6 2 7 25% 11848 83348 15871 44%
c d 10.79 28 336 0 12 2243 28 26917 5383 3.8 24 6 2 7 25% 9537 83348 15871 44%
c t 10.81 28 336 0 12 2243 28 26917 5383 3.8 24 6 2 7 25% 9513 83348 15871 44%
c f 10.86 28 336 0 12 2243 28 26917 5383 3.8 24 6 2 7 25% 9516 83325 15877 44%
c - 11.33 28 309 0 13 2356 26 30258 7528 3.6 22 6 2 7 24% 9547 83325 15877 44%
c - 12.09 28 287 0 14 2660 25 33863 9668 3.4 21 6 2 7 25% 9564 83324 15877 44%
c - 12.56 28 279 0 15 2814 24 37606 11359 3.2 20 6 2 6 24% 9603 83323 15877 44%
c o 12.82 28 278 0 15 2945 23 40561 13833 3.2 19 6 2 6 23% 9649 83321 15877 44%
c d 13.08 28 277 0 15 3078 24 41245 14394 3.2 20 6 2 6 23% 9580 83319 15839 43%
c u 13.15 28 277 0 15 3078 24 41245 12059 3.2 20 6 2 6 23% 9599 83319 15839 43%
c v 13.20 28 277 0 15 3078 24 41245 11392 3.2 20 6 2 6 23% 9599 83319 15839 43%
c w 13.24 28 277 0 15 3078 24 41245 11392 3.2 20 6 2 6 23% 9599 83319 15839 43%
c x 13.31 28 277 0 15 3078 24 41245 11392 3.2 20 6 2 6 23% 9600 78104 15839 43%
c = 13.52 28 277 0 15 3078 24 41245 11392 3.2 20 6 2 6 23% 9682 78104 15798 43%
c d 13.53 28 277 0 15 3078 24 41245 11291 3.2 20 6 2 6 23% 9583 78104 15796 43%
c t 13.54 28 277 0 15 3078 24 41245 11291 3.2 20 6 2 6 23% 9572 78104 15796 43%
c c 13.62 28 277 0 15 3078 24 41245 11291 3.2 20 6 2 6 23% 9619 77919 15774 43%
c d 13.63 28 277 0 15 3078 24 41245 11257 3.2 20 6 2 6 23% 9575 77919 15774 43%
c u 13.68 28 277 0 15 3078 24 41245 10842 3.2 20 6 2 6 23% 9579 77919 15774 43%
c
c  seconds   switched     rate         size/glue tier1    binary         remaining
c         MB   reductions   conflicts        size  tier2     irredundant
c           level   restarts      redundant    glue   trail         variables
c
c v 13.74 28 277 0 15 3078 24 41245 10020 3.2 20 6 2 6 23% 9580 77919 15774 43%
c w 13.79 28 277 0 15 3078 24 41245 10010 3.2 20 6 2 6 23% 9580 77919 15774 43%
c x 13.84 28 277 0 15 3078 24 41245 10010 3.2 20 6 2 6 23% 9591 77246 15774 43%
c = 14.07 28 277 0 15 3078 24 41245 10010 3.2 20 6 2 6 23% 10755 77246 15192 42%
c d 14.08 28 277 0 15 3078 24 41245 9474 3.2 20 6 2 6 23% 9532 77246 15192 42%
c t 14.10 28 277 0 15 3078 24 41245 9474 3.2 20 6 2 6 23% 9530 77246 15192 42%
c f 14.12 28 277 0 15 3078 24 41245 9474 3.2 20 6 2 6 23% 9534 77232 15195 42%
c - 14.14 28 278 0 16 3078 24 41478 8477 3.2 20 6 2 6 23% 9536 77232 15195 42%
c - 14.80 28 262 0 17 3292 23 45478 10650 3.1 19 6 2 6 23% 9575 77231 15195 42%
c - 15.85 28 254 0 18 3792 23 49602 13019 3.1 20 6 2 6 23% 9610 77227 15195 42%
c s 16.23 28 252 0 18 3964 23 52115 15195 3.0 19 6 2 6 23% 9642 71467 15195 42%
c e 16.35 28 252 0 18 3964 23 52115 15195 3.0 19 6 2 6 23% 8019 74612 13858 38%
c s 16.36 28 252 0 18 3964 23 52115 15195 3.0 19 6 2 6 23% 8046 73662 13858 38%
c e 16.38 28 252 0 18 3964 23 52115 15195 3.0 19 6 2 6 23% 8018 73704 13841 38%
c ^ 16.38 28 252 0 18 3964 23 52115 15195 3.0 19 6 2 6 23% 8018 73704 13841 38%
c - 16.79 28 247 0 19 4140 23 53845 12680 3.0 19 6 2 6 23% 8037 73699 13841 38%
c - 17.63 28 235 0 20 4490 23 58204 14830 2.9 19 6 2 6 24% 8059 73695 13841 38%
c d 17.79 28 234 0 20 4586 23 58883 15432 2.9 19 6 2 6 24% 8050 73695 13835 38%
c u 17.87 28 234 0 20 4586 23 58883 12626 2.9 19 6 2 6 24% 8077 73695 13835 38%
c v 17.94 28 234 0 20 4586 23 58883 11112 2.9 19 6 2 6 24% 8079 73695 13835 38%
c
c  seconds   switched     rate         size/glue tier1    binary         remaining
c         MB   reductions   conflicts        size  tier2     irredundant
c           level   restarts      redundant    glue   trail         variables
c
c w 17.99 28 234 0 20 4586 23 58883 11087 2.9 19 6 2 6 24% 8079 73695 13835 38%
c x 18.07 28 234 0 20 4586 23 58883 11087 2.9 19 6 2 6 24% 8086 72776 13835 38%
c = 18.42 28 234 0 20 4586 23 58883 11087 2.9 19 6 2 6 24% 8102 72776 13827 38%
c d 18.42 28 234 0 20 4586 23 58883 11079 2.9 19 6 2 6 24% 8076 72776 13822 38%
c t 18.44 28 234 0 20 4586 23 58883 11079 2.9 19 6 2 6 24% 8061 72776 13822 38%
c f 18.50 28 234 0 20 4586 23 58883 11079 2.9 19 6 2 6 24% 8072 72713 13832 38%
c c 18.56 28 234 0 20 4586 23 58883 11050 2.9 19 6 2 6 24% 8104 72601 13818 38%
c d 18.57 28 234 0 20 4586 23 58883 11050 2.9 19 6 2 6 24% 8076 72601 13818 38%
c u 18.63 28 234 0 20 4586 23 58883 10553 2.9 19 6 2 6 24% 8084 72601 13818 38%
c v 18.68 28 234 0 20 4586 23 58883 10348 2.9 19 6 2 6 24% 8084 72601 13818 38%
c w 18.72 28 234 0 20 4586 23 58883 10336 2.9 19 6 2 6 24% 8084 72601 13818 38%
c x 18.88 28 234 0 20 4586 23 58883 10332 2.9 19 6 2 6 24% 8128 70562 13818 38%
c = 19.24 28 234 0 20 4586 23 58883 10332 2.9 19 6 2 6 24% 8208 70562 13778 38%
c d 19.25 28 234 0 20 4586 23 58883 10288 2.9 19 6 2 6 24% 8111 70562 13777 38%
c t 19.26 28 234 0 20 4586 23 58883 10288 2.9 19 6 2 6 24% 8088 70562 13777 38%
c f 19.28 28 234 0 20 4586 23 58883 10288 2.9 19 6 2 6 24% 8088 70556 13778 38%
c - 19.82 28 227 0 21 4766 22 62679 12264 2.9 18 6 2 6 24% 8132 70556 13778 38%
c - 20.76 28 217 0 22 5221 22 67262 14714 2.8 18 6 2 6 24% 8162 70556 13778 38%
c o 21.21 28 216 0 22 5441 21 70827 17697 2.8 18 6 2 6 24% 8215 70556 13778 38%
c - 21.44 28 214 0 23 5546 22 71953 16721 2.8 18 6 2 6 24% 8220 70556 13778 38%
c
c  seconds   switched     rate         size/glue tier1    binary         remaining
c         MB   reductions   conflicts        size  tier2     irredundant
c           level   restarts      redundant    glue   trail         variables
c
c - 22.15 28 209 0 24 5867 21 76748 18502 2.7 18 6 2 6 23% 8300 70556 13778 38%
c c 23.05 28 206 0 24 6297 21 79975 21437 2.8 18 7 2 6 24% 8408 70074 13646 37%
c d 23.06 28 206 0 24 6297 21 79975 20880 2.8 18 7 2 6 24% 8144 70074 13646 37%
c u 23.17 28 206 0 24 6297 21 79975 17437 2.8 18 7 2 6 24% 8188 70074 13646 37%
c v 23.25 28 206 0 24 6297 21 79975 16166 2.8 18 7 2 6 24% 8189 70074 13646 37%
c w 23.32 28 206 0 24 6297 21 79975 16166 2.8 18 7 2 6 24% 8189 70074 13646 37%
c x 23.39 28 206 0 24 6297 21 79975 16166 2.8 18 7 2 6 24% 8189 70028 13646 37%
c d 23.46 28 206 0 24 6297 21 79975 16133 2.8 18 7 2 6 24% 8153 70028 13628 37%
c t 23.48 28 206 0 24 6297 21 79975 16133 2.8 18 7 2 6 24% 8148 70028 13628 37%
c c 23.55 28 206 0 24 6297 21 79975 16133 2.8 18 7 2 6 24% 8164 69954 13619 37%
c d 23.56 28 206 0 24 6297 21 79975 16103 2.8 18 7 2 6 24% 8146 69954 13619 37%
c u 23.65 28 206 0 24 6297 21 79975 15503 2.8 18 7 2 6 24% 8152 69954 13619 37%
c v 23.71 28 206 0 24 6297 21 79975 14648 2.8 18 7 2 6 24% 8159 69954 13619 37%
c w 23.92 28 206 0 24 6297 21 79975 14565 2.8 18 7 2 6 24% 8159 69954 13619 37%
c d 23.93 28 206 0 24 6297 21 79975 14561 2.8 18 7 2 6 24% 8151 69954 13615 37%
c - 24.39 28 203 0 25 6454 21 81646 14452 2.8 18 7 2 5 24% 8156 69953 13615 37%
c - 25.26 28 201 0 26 6848 21 86646 15403 2.7 18 7 1 5 24% 8206 69953 13615 37%
c - 26.33 28 198 0 27 7562 21 91745 17058 2.7 18 7 1 5 24% 8242 69953 13615 37%
c s 26.67 28 194 0 27 7834 21 95825 20400 2.7 18 7 1 5 24% 8329 69787 13615 37%
c e 26.76 28 194 0 27 7834 21 95825 20400 2.7 18 7 1 5 24% 5471 77256 12007 33%
c
c  seconds   switched     rate         size/glue tier1    binary         remaining
c         MB   reductions   conflicts        size  tier2     irredundant
c           level   restarts      redundant    glue   trail         variables
c
c 2 26.76 28 194 0 27 7834 21 95825 20400 2.7 18 7 1 5 24% 5470 77256 12007 33%
c s 26.78 28 194 0 27 7834 21 95825 20400 2.7 18 7 1 5 24% 5499 76509 12007 33%
c e 26.80 28 194 0 27 7834 21 95825 20400 2.7 18 7 1 5 24% 5460 76677 11956 33%
c ^ 26.80 28 194 0 27 7834 21 95825 20400 2.7 18 7 1 5 24% 5460 76677 11956 33%
c - 27.01 28 194 0 28 8005 21 96941 13252 2.8 18 7 1 5 24% 5468 76675 11956 33%
c - 27.54 28 197 0 29 8444 21 102235 15419 2.7 18 7 1 5 24% 5513 76672 11956 33%
c d 27.87 28 196 0 29 8750 22 104627 17581 2.7 18 7 1 5 24% 5475 76670 11933 33%
c u 27.91 28 196 0 29 8750 22 104627 15650 2.7 18 7 1 5 24% 5504 76670 11933 33%
c v 27.97 28 196 0 29 8750 22 104627 13386 2.7 18 7 1 5 24% 5516 76670 11933 33%
c w 28.10 28 196 0 29 8750 22 104627 13320 2.7 18 7 1 5 24% 5516 76670 11933 33%
c x 28.18 28 196 0 29 8750 22 104627 13314 2.7 18 7 1 5 24% 5530 75572 11933 33%
c = 28.53 28 196 0 29 8750 22 104627 13314 2.7 18 7 1 5 24% 6093 75504 11643 32%
c d 28.54 28 196 0 29 8750 22 104627 12920 2.7 18 7 1 5 24% 5426 75504 11643 32%
c t 28.55 28 196 0 29 8750 22 104627 12920 2.7 18 7 1 5 24% 5391 75504 11643 32%
c f 28.61 28 196 0 29 8750 22 104627 12920 2.7 18 7 1 5 24% 5419 75339 11658 32%
c u 28.67 28 196 0 29 8750 22 104627 12273 2.7 18 7 1 5 24% 5430 75339 11658 32%
c v 28.70 28 196 0 29 8750 22 104627 11714 2.7 18 7 1 5 24% 5431 75339 11658 32%
c w 28.83 28 196 0 29 8750 22 104627 11403 2.7 18 7 1 5 24% 5431 75339 11658 32%
c x 28.89 28 196 0 29 8750 22 104627 11403 2.7 18 7 1 5 24% 5431 75307 11658 32%
c = 29.25 28 196 0 29 8750 22 104627 11403 2.7 18 7 1 5 24% 5445 75307 11651 32%
c
c  seconds   switched     rate          size/glue tier1    binary         remaining
c         MB   reductions   conflicts         size  tier2     irredundant
c           level   restarts       redundant    glue   trail         variables
c
c d 29.25 28 196 0 29 8750 22 104627 11397 2.7 18 7 1 5 24% 5428 75307 11651 32%
c - 29.60 28 193 0 30 8991 21 107620 12235 2.7 18 7 1 5 24% 5436 75306 11651 32%
c o 29.95 28 189 0 30 9273 21 110836 15115 2.7 18 7 1 5 24% 5455 75303 11651 32%
c - 30.21 28 189 0 31 9496 21 113097 14908 2.7 18 7 1 5 24% 5471 75303 11651 32%
c - 31.03 28 185 0 32 10152 21 118664 17229 2.7 19 7 1 5 24% 5479 75299 11651 32%
c - 31.97 28 182 0 33 10764 22 124321 19039 2.8 19 7 1 5 24% 5500 75298 11651 32%
c - 33.01 28 180 0 34 11424 22 130066 20822 2.8 20 7 1 4 25% 5528 75294 11651 32%
c d 33.46 28 178 0 34 11711 22 132896 23264 2.8 20 7 1 4 25% 5479 75294 11624 32%
c u 33.55 28 178 0 34 11711 22 132896 20622 2.8 20 7 1 4 25% 5493 75294 11624 32%
c v 33.62 28 178 0 34 11711 22 132896 17822 2.8 20 7 1 4 25% 5498 75294 11624 32%
c w 33.85 28 178 0 34 11711 22 132896 17394 2.8 20 7 1 4 25% 5498 75294 11624 32%
c = 34.31 28 178 0 34 11711 22 132896 17394 2.8 20 7 1 4 25% 5760 75022 11463 31%
c d 34.31 28 178 0 34 11711 22 132896 16791 2.8 20 7 1 4 25% 5486 75021 11463 31%
c t 34.32 28 178 0 34 11711 22 132896 16791 2.8 20 7 1 4 25% 5434 75021 11463 31%
c f 34.33 28 178 0 34 11711 22 132896 16791 2.8 20 7 1 4 25% 5441 74965 11468 31%
c u 34.38 28 178 0 34 11711 22 132896 16025 2.8 20 7 1 4 25% 5447 74965 11468 31%
c v 34.42 28 178 0 34 11711 22 132896 15417 2.8 20 7 1 4 25% 5448 74965 11468 31%
c w 34.59 28 178 0 34 11711 22 132896 14896 2.8 20 7 1 4 25% 5449 74965 11468 31%
c x 34.68 28 178 0 34 11711 22 132896 14844 2.8 20 7 1 4 25% 5478 71691 11468 31%
c = 35.15 28 178 0 34 11711 22 132896 14844 2.8 20 7 1 4 25% 5632 71683 11391 31%
c
c  seconds   switched      rate          size/glue tier1    binary         remaining
c         MB   reductions    conflicts         size  tier2     irredundant
c           level   restarts        redundant    glue   trail         variables
c
c d 35.15 28 178 0 34 11711 22 132896 14827 2.8 20 7 1 4 25% 5471 71683 11391 31%
c t 35.16 28 178 0 34 11711 22 132896 14827 2.8 20 7 1 4 25% 5450 71683 11391 31%
c f 35.17 28 178 0 34 11711 22 132896 14827 2.8 20 7 1 4 25% 5453 71641 11395 31%
c - 35.34 28 175 0 35 11812 21 135899 15044 2.8 20 7 1 4 25% 5450 71635 11395 31%
c i 35.34 28 174 0 35 11812 21 136671 15556 2.8 20 7 1 4 24% 5469 71635 11394 31%
c i 35.56 28 169 0 35 12053 21 140397 18908 2.8 20 7 1 4 24% 5498 71633 11393 31%
c i 35.57 28 169 0 35 12062 21 140787 19257 2.8 20 7 1 4 24% 5500 71633 11392 31%
c - 35.66 28 168 0 36 12165 20 141817 17116 2.8 20 7 1 4 24% 5497 71633 11392 31%
c i 35.70 28 166 0 36 12197 20 142904 18038 2.8 20 7 1 4 24% 5507 71633 11391 31%
c i 35.75 28 166 0 36 12235 20 143528 18604 2.8 20 7 1 4 24% 5508 71633 11388 31%
c i 35.77 28 165 0 36 12260 20 143964 18971 2.8 20 7 1 4 24% 5513 71633 11387 31%
c i 35.79 28 165 0 36 12287 20 144268 19241 2.8 20 7 1 4 24% 5516 71633 11386 31%
c i 35.79 28 164 0 36 12301 20 144450 19383 2.8 20 7 1 4 23% 5523 71633 11385 31%
c - 35.89 28 159 0 37 12435 19 147817 18354 2.8 19 7 1 4 23% 5542 71631 11385 31%
c i 35.91 28 158 0 37 12448 19 148546 18962 2.8 19 7 1 4 23% 5561 71630 11384 31%
c i 35.94 28 156 0 37 12480 19 150083 20260 2.8 19 7 1 4 22% 5587 71629 11383 31%
c i 35.95 28 153 0 37 12483 19 151669 21491 2.7 19 7 1 4 22% 5622 71628 11381 31%
c i 35.96 28 153 0 37 12488 19 151946 21709 2.7 19 7 1 4 22% 5628 71628 11376 31%
c i 35.96 28 152 0 37 12488 19 152033 21773 2.7 19 7 1 4 22% 5636 71627 11374 31%
c i 35.96 28 152 0 37 12488 19 152055 21784 2.7 19 7 1 4 22% 5639 71627 11371 31%
c
c  seconds   switched      rate          size/glue tier1    binary         remaining
c         MB   reductions    conflicts         size  tier2     irredundant
c           level   restarts        redundant    glue   trail         variables
c
c i 35.96 28 152 0 37 12488 19 152077 21790 2.7 19 7 1 4 22% 5641 71627 11370 31%
c } 35.96 28 152 0 37 12488 19 152079 21790 2.7 19 7 1 4 22% 5641 71627 11331 31%
c 0 35.96 28 152 0 37 12488 19 152079 21790 2.7 19 7 1 4 22% 5641 71627 11331 31%
c
c ---- [ result ] ------------------------------------------------------------
c
s UNSATISFIABLE
c
c ---- [ profiling ] ---------------------------------------------------------
c
c          24.52   68.18 %  search
c          24.52   68.18 %  focused
c          11.06   30.77 %  simplify
c          10.48   29.14 %  probe
c           4.19   11.65 %  sweep
c           4.19   11.65 %  vivify
c           0.78    2.17 %  eliminate
c           0.76    2.10 %  factor
c           0.58    1.61 %  substitute
c           0.54    1.51 %  congruence
c           0.31    0.87 %  preprocess
c           0.23    0.64 %  reduce
c           0.15    0.40 %  subsume
c           0.14    0.40 %  transitive
c           0.11    0.31 %  fastel
c           0.08    0.22 %  backbone
c           0.04    0.11 %  lucky
c           0.02    0.07 %  parse
c =============================================
c          35.96  100.00 %  total
c
c ---- [ statistics ] --------------------------------------------------------
c
c chronological:                         5237                3 %  conflicts
c conflicts:                           152079             4228.99 per second
c congruent:                             3975               11 %  variables
c decisions:                          2911674               19.15 per conflict
c eliminated:                           18427               51 %  variables
c factored:                              3701               10 %  variables
c fast_eliminated:                      11033               60 %  eliminated
c fast_strengthened:                        3                0 %  per strengthened
c fast_subsumed:                           75                0 %  per subsumed
c iterations:                              16                0 %  variables
c propagations:                     123889315          3445094    per second
c reductions:                              37             4110    interval
c reordered:                                5            30416    interval
c restarts:                             12488               12    interval
c strengthened:                          3955                0 %  checks
c substituted:                          10275               28 %  variables
c subsumed:                             15302                1 %  checks
c switched:                                 0                0    interval
c vivified:                             78563               14 %  checks
c
c ---- [ glue usage ] --------------------------------------------------------
c
c focused glue 1 used 268901 clauses 60.23% accumulated 60.23% tier1
c focused glue 2 used  89719 clauses 20.10% accumulated 80.33%
c focused glue 3 used  27727 clauses  6.21% accumulated 86.54%
c focused glue 4 used  16121 clauses  3.61% accumulated 90.15% tier2
c
c ---- [ resources ] ---------------------------------------------------------
c
c maximum-resident-set-size:         32083968 bytes         31 MB
c process-time:                            36s              35.96 seconds
c
c ---- [ shutting down ] -----------------------------------------------------
c
c exit 20
